Route #1: 48 35 16 27 52 1 25
Route #2: 53 6 24 37 41 45
Route #3: 21 26 4 39 47 42 29 15 7
Route #4: 18 10 8 17 14 51 44 28 46
Route #5: 40 5 12 9 38 50 22 23 43
Route #6: 19 2 34 30 54 31 20 55 11 33 49
Route #7: 32 36 13 3
Cost 728